28 1000
818 16
242 91
745 45
601 61
299 79
64 87
945 37
724 58
892 40
262 36
233 20
465 62
713 42
979 90
243 33
144 48
738 54
589 36
425 12
717 80
272 64
348 31
935 9
241 56
459 52
227 80
846 7
558 69
